edges = [{1, 2, 4}, {1, 2, 5}, {3, 6}, {1, 4, 5, 7}, {8, 2, 4, 5}, {9, 3, 6}, {8, 10, 4, 7}, {8, 11, 5, 7}, {9, 13, 6}, {10, 11, 7}, {8, 10, 11, 12}, {11, 12, 13}, {9, 12, 13}];
input = [|1, 3|5, 6|7, 9|11, 13|];
V = 13;
A = 4;
E = 15;
maxTime = 30